
Gurobi 12.0.2 (win64) logging started Wed Jun  4 16:57:27 2025

Set parameter LogFile to value "C:\Ioana\_uni\honours\slp\algorithm\Main_files\results\others\fatty_acids\Task_009_Sample003_irr_gurobi.log"
Gurobi Optimizer version 12.0.2 build v12.0.2rc0 (win64 - Windows 11.0 (26100.2))

CPU model: Intel(R) Core(TM) Ultra 5 125H, instruction set [SSE2|AVX|AVX2]
Thread count: 14 physical cores, 18 logical processors, using up to 18 threads

Non-default parameters:
TimeLimit  2200

Optimize a model with 47226 rows, 34496 columns and 146683 nonzeros
Model fingerprint: 0x0ea58e95
Variable types: 17251 continuous, 17245 integer (17245 binary)
Coefficient statistics:
  Matrix range     [1e-04, 8e+04]
  Objective range  [2e-05, 1e+01]
  Bounds range     [1e+00, 1e+03]
  RHS range        [1e+00, 1e+00]
Presolve removed 30826 rows and 21543 columns
Presolve time: 0.49s
Presolved: 16400 rows, 12953 columns, 54575 nonzeros
Variable types: 6409 continuous, 6544 integer (6544 binary)
Found heuristic solution: objective 24.1900481

Root relaxation: objective 8.699487e-01, 0 iterations, 0.02 seconds (0.00 work units)

    Nodes    |    Current Node    |     Objective Bounds      |     Work
 Expl Unexpl |  Obj  Depth IntInf | Incumbent    BestBd   Gap | It/Node Time

*    0     0               0       0.8699487    0.86995  0.00%     -    0s

Explored 1 nodes (0 simplex iterations) in 0.66 seconds (0.45 work units)
Thread count was 18 (of 18 available processors)

Solution count 2: 0.869949 24.19 

Optimal solution found (tolerance 1.00e-04)
Best objective 8.699486612056e-01, best bound 8.699486612056e-01, gap 0.0000%
